JulietBench/Juliet_Based_Patch_Bench/linux/CWE-189-Numeric-Errors/CVE_2010_3859_253eacc070b114c2ec1f81b067d2fed7305467b0/ResultSYSCALL_DEFINE6_Snippet_patch2EQ.smt2
; benchmark generated from python API
(set-info :status unknown)
(declare-fun R () (_ BitVec 32))
(declare-fun rdi () (_ BitVec 64))
(assert
 (let (($x7 (= (_ bv1024 32) R)))
 (let ((?x15 ((_ extract 31 0) rdi)))
 (let (($x13 (= R ?x15)))
 (and $x13 $x7)))))
(check-sat)
